p td 22 87
2 1
4 3
4 1
4 2
5 1
6 5
6 3
7 2
7 5
7 3
8 5
8 6
8 3
8 2
8 7
8 4
9 5
9 7
10 7
10 1
10 4
11 2
11 10
11 9
11 8
11 4
12 10
12 8
12 5
12 1
12 4
13 2
13 11
13 12
13 10
14 10
14 12
14 2
14 6
14 11
14 13
15 8
15 5
15 7
15 14
15 10
15 9
16 13
16 15
16 11
16 14
16 1
17 7
17 15
17 9
17 5
17 14
17 1
17 12
17 13
18 9
18 2
18 10
18 3
19 12
19 5
20 7
20 10
20 8
20 14
20 1
20 11
20 19
20 6
21 18
21 7
21 20
21 12
21 10
21 14
21 1
21 13
21 11
22 7
22 15
22 6
22 10
